Name: Ing0506-2
Courses: 121
Rooms: 19
Days: 5
Periods_per_day: 5
Curricula: 78
Min_Max_Daily_Lectures: 2 4
UnavailabilityConstraints: 691
RoomConstraints: 185

COURSES:
c0007 t000 3 3 15 0
c0009 t001 3 3 25 0
c0015 t002 3 3 25 0
c0019 t003 3 3 45 0
c0020 t004 3 3 15 0
c0023 t005 3 3 135 0
c0024 t006 3 3 35 0
c0044 t007 3 3 120 0
c0047 t008 3 3 128 0
c0049 t009 3 3 77 0
c0056 t010 3 3 120 0
c0058 t011 3 3 128 0
c0061 t012 3 3 77 0
c0062 t013 3 3 77 0
c0069 t014 3 3 120 0
c0072 t015 3 2 135 0
c0074 t016 3 1 40 1
c0095 t017 3 3 100 0
c0103 t018 3 3 100 0
c0106 t019 3 3 165 0
c0108 t020 3 3 100 0
c0110 t011 3 3 190 0
c0113 t021 3 3 130 0
c0115 t022 3 3 160 0
c0118 t023 3 3 40 0
c0127 t024 3 3 100 0
c0129 t025 3 2 150 0
c0131 t026 3 2 150 0
c0132 t026 3 2 130 0
c0133 t027 4 1 120 1
c0152 t028 3 3 150 0
c0153 t029 3 2 130 0
c0178 t030 3 3 90 0
c0191 t031 3 2 90 0
c0193 t032 3 3 130 0
c0195 t010 3 3 90 0
c0201 t033 3 2 119 1
c0203 t028 3 3 92 0
c0206 t034 3 3 90 0
c0211 t020 3 3 140 0
c0213 t035 3 3 140 0
c0217 t036 3 3 120 0
c0219 t037 3 2 100 1
c0221 t038 3 3 100 0
c0225 t039 3 3 80 0
c0230 t040 3 3 145 0
c0232 t041 3 3 65 0
c0238 t042 3 3 140 0
c0252 t043 3 3 128 0
c0253 t044 3 3 70 0
c0257 t045 3 3 169 0
c0279 t042 3 3 122 0
c0411 t046 3 3 80 0
c0412 t047 3 3 30 0
c0423 t048 3 3 30 0
c0428 t047 3 3 15 0
c0430 t040 3 3 60 0
c0432 t049 3 3 45 0
c0443 t025 3 3 30 0
c0444 t050 3 3 15 0
c0449 t044 3 3 15 0
c0455 t051 3 3 82 0
c0464 t052 3 3 67 0
c0467 t053 3 3 37 0
c0478 t054 3 3 75 0
c0479 t009 3 3 53 0
c0487 t055 3 3 45 0
c0496 t056 3 3 32 0
c0497 t057 3 3 15 0
c0503 t058 3 3 37 0
c0512 t059 3 3 100 0
c0515 t060 3 3 122 0
c0520 t019 3 3 100 0
c0526 t021 3 3 30 0
c0530 t059 3 3 30 0
c0532 t061 3 3 20 0
c0534 t062 3 3 20 0
c0535 t063 3 3 30 0
c0537 t064 3 3 20 0
c0538 t064 3 3 20 0
c0539 t065 3 3 30 0
c0554 t004 3 3 20 0
c0602 t066 3 3 52 0
c0722 t067 3 3 100 0
c0723 t068 3 2 10 0
c0725 t065 3 3 100 0
c0730 t008 3 3 15 0
c0737 t032 3 3 53 0
c0742 t069 3 3 56 0
c0746 t056 3 3 128 0
c0789 t070 3 3 5 0
c0794 t071 3 3 10 0
c0795 t070 3 3 30 0
c0804 t072 3 3 5 0
c0807 t073 3 3 5 0
c0808 t074 3 3 15 0
c0822 t075 3 3 5 0
c0835 t076 3 3 30 0
c0847 t046 3 3 60 0
c0883 t077 7 2 40 1
c0897 t078 3 2 70 0
c0932 t079 3 3 65 0
c0936 t067 3 3 70 0
c0955 t080 7 2 50 1
c0963 t081 7 2 50 1
c0975 t082 7 2 50 1
c0980 t083 7 2 60 1
c0983 t084 7 2 50 1
c0998 t085 3 3 100 0
c1053 t086 3 2 30 0
c1062 t087 3 3 40 0
c1066 t088 3 3 20 0
c1069 t057 3 3 20 0
c1072 t089 3 3 60 0
c1074 t090 3 3 30 0
c1077 t063 3 3 50 0
c1001 t091 3 2 70 1
c0812 t092 5 4 20 0
c0088 t093 3 3 85 0
c0089 t093 3 3 50 0
c1022 t094 3 2 10 0

ROOMS:
r25 40 1
r36 42 1
r37 42 1
r38 48 1
r31 50 1
r27 65 1
r51 78 1
rB 216 0
rD 216 0
rF 216 0
rG 216 0
rA 312 3
rL 336 2
r50 75 0
r52 60 0
rDS1 80 1
rDS2 60 1
rN 30 0
rR 40 4

CURRICULA:
q000 3 c0095 c0108 c0127 
q001 4 c0103 c0110 c0113 c0722 
q002 4 c0106 c0115 c0118 c0998 
q003 4 c0106 c0115 c0998 c1077 
q004 4 c0106 c0115 c0723 c0998 
q005 3 c0211 c0213 c0238 
q006 4 c0007 c0009 c0230 c0023 
q007 3 c0230 c0023 c0217 
q008 3 c0009 c0023 c0019 
q009 4 c0015 c0019 c0020 c0024 
q010 5 c0019 c0088 c0089 c0221 c0253 
q011 4 c0015 c0795 c0897 c0230 
q012 3 c0044 c0056 c0069 
q013 3 c0047 c0058 c0746 
q014 4 c0049 c0061 c0062 c0742 
q015 4 c0049 c0061 c0062 c0074 
q016 4 c0049 c0061 c0062 c1069 
q017 4 c0049 c0061 c0062 c0072 
q019 4 c0217 c0219 c0023 c0230 
q020 4 c0217 c0219 c0230 c0897 
q021 4 c0221 c0225 c0232 c0088 
q022 4 c0221 c0225 c0253 c0932 
q023 2 c0225 c0221 
q024 3 c0178 c0195 c0206 
q025 4 c0252 c0191 c0110 c0193 
q026 4 c0257 c0515 c0201 c0203 
q027 4 c0257 c0515 c0201 c0467 
q028 4 c0257 c0515 c0201 c0106 
q029 4 c0129 c0131 c0152 c0975 
q030 4 c0129 c0131 c0152 c0955 
q031 4 c0129 c0131 c0152 c0983 
q032 4 c0132 c0133 c0153 c0883 
q033 4 c0132 c0133 c0153 c0980 
q034 4 c0132 c0153 c0897 c0963 
q035 4 c0132 c0133 c0153 c0963 
q037 4 c0252 c0058 c0047 c0746 
q038 4 c0257 c0201 c0072 c0203 
q039 3 c0257 c0201 c0072 
q040 4 c0257 c0201 c0072 c0279 
q041 5 c0455 c0478 c0602 c0503 c0203 
q042 5 c0455 c0478 c0602 c0503 c0279 
q043 6 c0455 c0478 c0602 c0503 c0279 c0203 
q044 4 c0115 c0279 c0455 c0106 
q045 5 c0115 c0279 c0455 c0106 c0203 
q046 4 c0115 c0279 c0455 c0467 
q047 5 c0115 c0279 c0455 c0467 c0203 
q048 3 c0464 c0496 c0279 
q049 2 c0464 c0496 
q050 4 c0464 c0072 c0520 c0113 
q051 2 c0464 c0554 
q052 5 c0411 c0412 c0089 c0932 c1074 
q053 5 c0411 c0432 c0232 c0088 c0443 
q054 5 c0423 c0428 c0430 c0253 c0432 
q055 4 c0444 c0423 c0430 c0449 
q056 3 c0478 c0479 c0074 
q057 4 c0478 c0479 c0074 c0742 
q058 4 c0478 c0479 c0497 c1069 
q059 5 c0478 c0479 c0497 c1069 c0742 
q060 4 c0478 c0479 c0072 c0737 
q061 5 c0478 c0479 c0072 c0737 c0742 
q062 4 c0487 c0737 c0730 c1053 
q063 5 c0487 c0737 c0496 c1053 c0279 
q064 4 c0487 c0074 c0503 c0279 
q065 5 c0512 c0725 c0193 c0515 c0936 
q066 4 c0512 c0725 c0430 c0530 
q067 5 c0512 c0725 c0535 c0539 c0936 
q068 5 c0520 c1001 c0072 c0257 c0526 
q069 5 c0520 c1001 c0257 c0024 c0532 
q070 5 c0520 c1001 c0534 c0537 c0538 
q071 6 c0602 c0794 c0795 c0467 c0835 c1022 
q072 4 c0602 c0812 c0411 c0835 
q073 5 c0602 c0795 c0411 c0812 c0835 
q074 3 c0804 c0807 c0808 
q075 2 c0808 c0822 
q076 2 c0789 c0808 
q077 4 c0847 c0980 c0897 c1072 
q078 4 c0847 c1062 c0897 c1072 
q079 4 c0847 c1062 c1066 c1072 

UNAVAILABILITY_CONSTRAINTS:
c0007 0 0 
c0007 0 1 
c0007 0 2 
c0007 0 3 
c0007 0 4 
c0007 1 2 
c0007 2 2 
c0007 4 2 
c0015 0 2 
c0015 1 2 
c0015 1 3 
c0015 2 2 
c0015 3 2 
c0015 3 3 
c0015 4 2 
c0015 4 3 
c0020 0 0 
c0020 0 1 
c0020 1 0 
c0020 2 0 
c0020 3 0 
c0020 4 0 
c0020 4 3 
c0020 4 4 
c0023 0 0 
c0023 0 1 
c0023 0 2 
c0023 0 3 
c0023 0 4 
c0023 1 0 
c0023 2 2 
c0023 2 3 
c0023 2 4 
c0023 4 0 
c0023 4 1 
c0023 4 2 
c0023 4 3 
c0023 4 4 
c0024 0 0 
c0024 0 1 
c0024 1 0 
c0024 1 4 
c0024 2 0 
c0024 3 0 
c0024 4 0 
c0024 4 4 
c0044 0 0 
c0044 0 1 
c0044 0 2 
c0044 0 3 
c0044 0 4 
c0044 4 0 
c0044 4 1 
c0044 4 2 
c0044 4 3 
c0044 4 4 
c0047 0 0 
c0047 0 1 
c0047 0 2 
c0047 0 3 
c0047 0 4 
c0047 1 0 
c0047 1 1 
c0047 1 2 
c0049 0 0 
c0049 0 1 
c0049 0 2 
c0049 4 0 
c0049 4 1 
c0049 4 2 
c0049 4 3 
c0049 4 4 
c0056 0 2 
c0056 0 3 
c0056 0 4 
c0056 1 2 
c0056 1 3 
c0056 1 4 
c0056 2 2 
c0056 2 3 
c0056 2 4 
c0056 3 2 
c0056 3 3 
c0056 3 4 
c0056 4 2 
c0056 4 3 
c0056 4 4 
c0058 0 0 
c0058 1 0 
c0058 2 0 
c0058 2 1 
c0058 2 2 
c0058 2 3 
c0058 2 4 
c0058 3 0 
c0058 3 1 
c0058 3 2 
c0058 3 3 
c0058 3 4 
c0061 0 0 
c0061 1 0 
c0061 2 0 
c0061 4 0 
c0061 4 1 
c0061 4 2 
c0061 4 3 
c0061 4 4 
c0062 0 0 
c0062 0 1 
c0062 1 0 
c0062 4 0 
c0062 4 1 
c0062 4 2 
c0062 4 3 
c0062 4 4 
c0069 0 0 
c0069 0 1 
c0069 0 2 
c0069 0 3 
c0069 0 4 
c0069 4 2 
c0069 4 3 
c0069 4 4 
c0072 0 0 
c0072 0 1 
c0072 1 3 
c0072 1 4 
c0072 2 0 
c0072 2 1 
c0072 2 2 
c0072 2 3 
c0072 2 4 
c0072 3 0 
c0072 3 1 
c0072 3 2 
c0072 3 3 
c0072 3 4 
c0072 4 0 
c0072 4 1 
c0072 4 2 
c0072 4 3 
c0072 4 4 
c0095 3 0 
c0095 3 1 
c0095 3 2 
c0095 3 3 
c0095 3 4 
c0095 4 0 
c0095 4 1 
c0095 4 2 
c0095 4 3 
c0095 4 4 
c0103 3 2 
c0103 3 3 
c0103 3 4 
c0103 4 0 
c0103 4 1 
c0103 4 2 
c0103 4 3 
c0103 4 4 
c0108 0 0 
c0108 1 0 
c0108 2 0 
c0108 2 1 
c0108 2 2 
c0108 2 3 
c0108 2 4 
c0108 3 0 
c0108 3 1 
c0108 3 2 
c0108 3 3 
c0108 3 4 
c0108 4 0 
c0108 4 4 
c0110 0 0 
c0110 1 0 
c0110 2 0 
c0110 2 1 
c0110 2 2 
c0110 2 3 
c0110 2 4 
c0110 3 0 
c0110 3 1 
c0110 3 2 
c0110 3 3 
c0110 3 4 
c0113 4 0 
c0113 4 1 
c0113 4 2 
c0113 4 3 
c0113 4 4 
c0115 3 2 
c0115 3 3 
c0115 3 4 
c0115 4 0 
c0115 4 1 
c0115 4 2 
c0115 4 3 
c0115 4 4 
c0118 0 2 
c0118 0 3 
c0118 0 4 
c0118 4 2 
c0118 4 3 
c0118 4 4 
c0129 0 0 
c0129 0 1 
c0129 0 2 
c0129 0 3 
c0129 0 4 
c0129 1 0 
c0129 1 1 
c0129 1 2 
c0129 3 2 
c0129 4 2 
c0129 4 4 
c0131 2 0 
c0131 2 1 
c0131 2 2 
c0131 2 3 
c0131 2 4 
c0131 3 2 
c0131 4 2 
c0131 4 4 
c0132 0 2 
c0132 1 2 
c0132 1 4 
c0132 3 2 
c0132 3 3 
c0132 3 4 
c0132 4 0 
c0132 4 1 
c0132 4 2 
c0132 4 3 
c0132 4 4 
c0133 0 2 
c0133 1 2 
c0133 1 4 
c0152 3 2 
c0152 4 2 
c0152 4 4 
c0153 0 0 
c0153 0 1 
c0153 0 2 
c0153 0 3 
c0153 0 4 
c0153 1 0 
c0153 1 1 
c0153 1 2 
c0153 1 3 
c0153 1 4 
c0153 2 0 
c0153 2 1 
c0153 3 4 
c0153 4 1 
c0153 4 2 
c0153 4 3 
c0153 4 4 
c0178 0 0 
c0178 0 1 
c0178 0 2 
c0178 0 3 
c0178 1 0 
c0178 2 0 
c0178 3 0 
c0178 4 0 
c0191 0 0 
c0191 0 1 
c0191 0 2 
c0191 4 0 
c0191 4 1 
c0191 4 2 
c0191 4 3 
c0191 4 4 
c0193 0 0 
c0193 0 1 
c0193 0 2 
c0193 0 3 
c0193 0 4 
c0193 2 0 
c0193 2 1 
c0193 2 2 
c0193 3 0 
c0193 3 1 
c0193 3 2 
c0195 0 2 
c0195 0 3 
c0195 0 4 
c0195 1 2 
c0195 1 3 
c0195 1 4 
c0195 2 2 
c0195 2 3 
c0195 2 4 
c0195 3 2 
c0195 3 3 
c0195 3 4 
c0195 4 2 
c0195 4 3 
c0195 4 4 
c0201 0 0 
c0201 0 3 
c0201 0 4 
c0201 4 0 
c0201 4 1 
c0201 4 2 
c0206 3 0 
c0206 3 1 
c0206 3 2 
c0206 3 3 
c0206 3 4 
c0206 4 2 
c0206 4 3 
c0206 4 4 
c0211 0 0 
c0211 1 0 
c0211 2 0 
c0211 3 0 
c0211 4 0 
c0211 4 4 
c0213 0 0 
c0213 0 3 
c0213 0 4 
c0213 1 4 
c0213 2 4 
c0213 3 4 
c0213 4 3 
c0213 4 4 
c0219 3 0 
c0219 3 1 
c0219 3 2 
c0219 3 3 
c0219 3 4 
c0219 4 0 
c0219 4 1 
c0219 4 2 
c0230 0 0 
c0230 0 2 
c0230 1 2 
c0230 2 2 
c0230 3 2 
c0230 4 2 
c0230 4 3 
c0230 4 4 
c0232 0 2 
c0232 1 2 
c0232 2 2 
c0232 3 2 
c0232 4 2 
c0238 0 3 
c0238 0 4 
c0238 1 3 
c0238 1 4 
c0238 2 3 
c0238 2 4 
c0238 3 3 
c0238 3 4 
c0238 4 3 
c0238 4 4 
c0252 0 0 
c0252 1 0 
c0252 2 0 
c0252 2 2 
c0252 2 3 
c0252 2 4 
c0252 3 0 
c0252 4 0 
c0253 4 0 
c0253 4 1 
c0253 4 2 
c0253 4 3 
c0253 4 4 
c0257 0 0 
c0257 0 1 
c0257 0 2 
c0257 0 3 
c0257 0 4 
c0257 4 0 
c0257 4 1 
c0257 4 2 
c0257 4 3 
c0257 4 4 
c0279 0 3 
c0279 0 4 
c0279 1 3 
c0279 1 4 
c0279 2 3 
c0279 2 4 
c0279 3 3 
c0279 3 4 
c0279 4 3 
c0279 4 4 
c0411 0 0 
c0411 0 1 
c0411 0 2 
c0411 0 3 
c0411 0 4 
c0411 1 0 
c0411 1 1 
c0411 1 2 
c0423 1 2 
c0423 2 2 
c0423 3 2 
c0423 4 0 
c0423 4 1 
c0423 4 2 
c0423 4 3 
c0423 4 4 
c0430 0 0 
c0430 0 1 
c0430 1 2 
c0430 2 2 
c0430 3 2 
c0430 4 2 
c0430 4 3 
c0430 4 4 
c0432 0 1 
c0432 2 1 
c0432 3 0 
c0432 3 1 
c0432 3 2 
c0432 3 3 
c0432 3 4 
c0432 4 1 
c0443 0 0 
c0443 0 1 
c0443 0 2 
c0443 0 3 
c0443 0 4 
c0443 1 0 
c0443 1 1 
c0443 4 4 
c0449 4 0 
c0449 4 1 
c0449 4 2 
c0449 4 3 
c0449 4 4 
c0455 1 3 
c0455 1 4 
c0455 2 0 
c0455 2 1 
c0455 2 2 
c0455 2 3 
c0455 2 4 
c0455 4 4 
c0478 0 2 
c0478 0 3 
c0478 0 4 
c0478 2 2 
c0478 2 3 
c0478 2 4 
c0479 0 0 
c0479 0 1 
c0479 0 2 
c0479 4 0 
c0479 4 1 
c0479 4 2 
c0479 4 3 
c0479 4 4 
c0487 0 0 
c0487 0 1 
c0487 4 0 
c0487 4 1 
c0487 4 2 
c0487 4 3 
c0487 4 4 
c0496 0 0 
c0496 1 0 
c0496 2 0 
c0496 3 0 
c0496 4 0 
c0503 0 0 
c0503 0 1 
c0503 0 2 
c0503 3 2 
c0503 3 3 
c0503 3 4 
c0512 3 4 
c0515 0 2 
c0515 0 3 
c0515 0 4 
c0515 1 2 
c0515 1 3 
c0515 1 4 
c0515 2 2 
c0515 2 3 
c0515 2 4 
c0515 3 2 
c0515 3 3 
c0515 3 4 
c0515 4 2 
c0515 4 3 
c0515 4 4 
c0526 4 0 
c0526 4 1 
c0526 4 2 
c0526 4 3 
c0526 4 4 
c0530 3 4 
c0532 0 2 
c0532 1 2 
c0532 1 3 
c0532 1 4 
c0532 2 3 
c0532 2 4 
c0532 3 2 
c0532 4 2 
c0534 0 0 
c0534 0 1 
c0534 0 2 
c0534 0 3 
c0534 0 4 
c0534 4 2 
c0534 4 3 
c0534 4 4 
c0535 1 0 
c0535 1 1 
c0535 1 2 
c0535 1 3 
c0535 1 4 
c0535 3 0 
c0535 3 1 
c0535 3 2 
c0539 0 2 
c0539 1 2 
c0539 2 2 
c0539 3 2 
c0539 4 2 
c0554 0 0 
c0554 0 1 
c0554 1 0 
c0554 2 0 
c0554 3 0 
c0554 4 0 
c0554 4 3 
c0554 4 4 
c0602 3 0 
c0602 3 1 
c0722 0 0 
c0722 0 1 
c0722 2 0 
c0722 2 1 
c0722 2 2 
c0722 2 3 
c0722 2 4 
c0722 4 4 
c0723 1 0 
c0723 1 1 
c0723 1 2 
c0723 1 3 
c0723 2 3 
c0723 3 3 
c0723 3 4 
c0723 4 4 
c0725 0 2 
c0725 1 2 
c0725 2 2 
c0725 3 2 
c0725 4 2 
c0730 0 0 
c0730 0 1 
c0730 0 2 
c0730 0 3 
c0730 0 4 
c0730 1 0 
c0730 1 1 
c0730 1 2 
c0737 0 0 
c0737 0 1 
c0737 0 2 
c0737 0 3 
c0737 0 4 
c0737 2 0 
c0737 2 1 
c0737 2 2 
c0737 3 0 
c0737 3 1 
c0737 3 2 
c0742 0 0 
c0742 0 1 
c0742 0 2 
c0742 0 3 
c0742 4 1 
c0742 4 2 
c0742 4 3 
c0742 4 4 
c0746 0 0 
c0746 1 0 
c0746 2 0 
c0746 3 0 
c0746 4 0 
c0794 0 2 
c0794 1 2 
c0794 2 2 
c0794 3 2 
c0794 4 2 
c0804 4 0 
c0804 4 1 
c0804 4 2 
c0804 4 3 
c0804 4 4 
c0807 0 0 
c0807 0 4 
c0807 1 0 
c0807 1 4 
c0807 2 4 
c0807 3 4 
c0807 4 4 
c0808 0 0 
c0808 0 2 
c0808 1 2 
c0808 2 2 
c0808 3 2 
c0808 4 0 
c0808 4 2 
c0808 4 4 
c0822 0 0 
c0822 0 1 
c0822 0 2 
c0822 1 2 
c0822 2 2 
c0822 4 2 
c0822 4 3 
c0822 4 4 
c0835 4 0 
c0835 4 1 
c0835 4 2 
c0835 4 3 
c0835 4 4 
c0847 0 0 
c0847 0 1 
c0847 0 2 
c0847 0 3 
c0847 0 4 
c0847 1 0 
c0847 1 1 
c0847 1 2 
c0897 0 2 
c0897 1 2 
c0897 1 4 
c0897 4 3 
c0897 4 4 
c0936 0 0 
c0936 0 1 
c0936 2 0 
c0936 2 1 
c0936 2 2 
c0936 2 3 
c0936 2 4 
c0936 4 4 
c0998 0 0 
c0998 0 1 
c0998 0 2 
c0998 0 3 
c0998 0 4 
c0998 4 2 
c0998 4 3 
c0998 4 4 
c1053 0 0 
c1053 0 1 
c1053 0 2 
c1053 0 3 
c1053 0 4 
c1053 1 0 
c1053 1 1 
c1053 3 0 
c1053 3 1 
c1053 3 2 
c1053 3 3 
c1053 3 4 
c1053 4 0 
c1053 4 1 
c1053 4 2 
c1053 4 3 
c1053 4 4 
c1074 0 3 
c1074 0 4 
c1074 1 4 
c1074 2 3 
c1074 2 4 
c1074 3 4 
c1074 4 3 
c1074 4 4 
c1077 1 0 
c1077 1 1 
c1077 1 2 
c1077 1 3 
c1077 1 4 
c1077 3 0 
c1077 3 1 
c1077 3 2 

ROOM_CONSTRAINTS:
c0007 r37
c0007 rG
c0007 r52
c0007 rN
c0009 r38
c0009 rL
c0015 rG
c0019 rB
c0020 rL
c0020 rDS1
c0023 rG
c0024 rB
c0049 r36
c0049 r31
c0049 r27
c0049 r52
c0056 r31
c0056 rD
c0058 rF
c0058 rA
c0062 r27
c0062 rR
c0069 r25
c0069 r36
c0072 r38
c0072 r52
c0074 rA
c0103 r31
c0106 rG
c0110 rDS1
c0113 r27
c0113 rD
c0113 r50
c0113 rN
c0115 r38
c0115 r31
c0115 rL
c0127 rF
c0127 r52
c0129 rB
c0131 r25
c0132 r27
c0132 rA
c0133 r38
c0133 rD
c0152 rDS2
c0153 r50
c0178 rB
c0178 rL
c0178 rDS1
c0178 rN
c0193 rN
c0201 r36
c0203 r25
c0203 rG
c0203 r50
c0206 r36
c0206 rB
c0206 rD
c0206 rDS1
c0211 r37
c0211 rR
c0213 r37
c0213 rR
c0217 rDS2
c0219 rA
c0221 rR
c0225 r38
c0230 r37
c0230 rB
c0238 rL
c0253 r50
c0279 rN
c0411 r27
c0411 rL
c0423 rDS1
c0428 r27
c0428 rN
c0430 rD
c0430 r50
c0432 r25
c0432 rF
c0432 rR
c0443 rG
c0449 r37
c0464 r25
c0467 r25
c0467 rF
c0467 rN
c0478 r37
c0478 r50
c0478 rN
c0479 r31
c0479 rDS2
c0479 rR
c0487 rL
c0496 rL
c0503 rA
c0515 rG
c0520 r25
c0526 rA
c0530 rDS1
c0530 rR
c0532 r31
c0532 rDS2
c0534 r27
c0534 rD
c0534 rA
c0535 rD
c0535 r52
c0537 r27
c0537 r51
c0537 rA
c0537 rDS2
c0538 r50
c0539 rDS1
c0602 r36
c0602 r50
c0723 r31
c0723 r27
c0723 rN
c0725 r27
c0737 r27
c0737 r51
c0737 rB
c0737 r52
c0742 r25
c0742 r37
c0742 r27
c0789 r38
c0789 rL
c0789 rR
c0794 rB
c0794 rL
c0795 rA
c0804 r37
c0804 r31
c0808 r31
c0808 rF
c0808 rG
c0822 rA
c0822 r50
c0822 r52
c0822 rR
c0835 r36
c0835 r37
c0835 rDS1
c0835 rR
c0847 rG
c0847 r50
c0883 rD
c0883 rA
c0897 rB
c0932 r37
c0932 r52
c0936 r52
c0955 r27
c0955 rR
c0980 r36
c0983 rF
c0983 r50
c0983 r52
c0983 rDS1
c0983 rDS2
c0983 rN
c0998 rL
c1053 rL
c1053 rDS2
c1062 r37
c1062 rD
c1069 r25
c1069 rG
c1069 rDS2
c1072 r25
c1072 rG
c1072 r52
c1074 r27
c1077 rR
c1001 r25
c0088 r38
c0088 rG
c0089 r37
c0089 rR
c1022 r36
c1022 rDS1

END.
